RAW/D/fspd/CON8-6.vrpspd_seed-2.out
678.9171	0.322	29.639
