RAW/D/fspd/CON8-6.vrpspd_seed-2.sol
Route #1: 31 27
Route #2: 24 5 9 34 19 47
Route #3: 42 4 12 41 49 48
Route #4: 11 18 29
Route #5: 25 30 2 23
Route #6: 28 35 46 40 15 16
Route #7: 14 33 1 22 32 45 6
Route #8: 44 36 7 20 21 50 37 17
Route #9: 8 38 39 43 3 10 13 26
Cost 6789171.000000